SCIP version 5.0.0 [precision: 8 byte] [memory: block] [mode: optimized] [LP solver: NONE] [GitHash: 3bbd232]
Copyright (C) 2002-2017 Konrad-Zuse-Zentrum fuer Informationstechnik Berlin (ZIB)

External codes: 
  Readline EditLine w  GNU library for command line editing (gnu.org/s/readline)
  CppAD 20160000.1     Algorithmic Differentiation of C++ algorithms developed by B. Bell (www.coin-or.org/CppAD)
  ZLIB 1.2.5           General purpose compression library by J. Gailly and M. Adler (zlib.net)
  GMP 6.1.2            GNU Multiple Precision Arithmetic Library developed by T. Granlund (gmplib.org)

user parameter file <scip.set> not found - using default parameters

read problem <../../Split_data/output/breast/2/0_sample_breast.logreg>
============

File name	:	../../Split_data/output/breast/2/0_sample_breast.logreg
Problem name 	:	0_sample_breast
Number of data	:	155
Number of var	:	33
The given data has linear dependence
17 sets of column vector are linearly dependent:
elements are all 0
elements are all 0
elements are all 0
elements are all 0
elements are all 0
elements are all 0

[dim=1] time: 0.002532
[dim=2] time: 0.004949
[dim=3] time: 0.007553
[dim=4] time: 0.009937
[dim=5] time: 0.012295
[dim=6] time: 0.014357
[dim=7] time: 0.016352
[dim=8] Time of forward = 0.018123sec.
AIC: 146.472
k: 7

[dim=16] time: 0.004765
[dim=15] time: 0.006959
[dim=14] time: 0.009281
[dim=13] time: 0.011208
[dim=12] time: 0.0136
[dim=11] time: 0.015938
[dim=10] time: 0.017912
[dim=9] time: 0.019716
[dim=8] Time of backward = 0.021174sec.
AIC: 146.719
k: 9
